50

  0    6   11    9   21   18   19    5  129  133  129  135  143  129  145  144  141  147   43   45   41   35   31   37   36   33   35   46   53   39   31   44   33   38   34   34   43   28   44   42   45   36   37  113  124  113  113  108  115  114  
  6    0   11    4   19   16   17    2  128  132  129  134  142  128  144  143  140  146   48   51   47   40   35   43   40   38   39   51   58   43   36   49   37   44   39   38   48   33   48   47   49   40   42  117  127  117  117  112  120  119  
 11   11    0    9   11    8    9    9  119  122  119  124  132  118  134  133  130  136   40   44   42   35   27   37   34   32   30   44   50   35   29   42   29   39   33   31   40   27   40   39   42   32   35  123  133  123  123  119  125  124  
  9    4    9    0   15   12   13    4  124  128  125  130  138  124  140  139  136  142   48   52   49   42   35   44   41   39   39   52   58   43   36   50   37   45   40   39   48   34   48   47   50   40   43  122  132  122  121  116  124  123  
 21   19   11   15    0    3    2   18  110  114  110  116  123  110  125  125  121  127   45   51   50   42   33   44   40   39   35   50   55   39   35   48   35   47   40   36   45   35   44   43   46   37   42  134  144  134  134  129  136  135  
 18   16    8   12    3    0    1   15  112  117  113  119  126  112  128  127  124  130   43   49   48   40   31   42   38   37   34   48   53   37   33   46   33   44   38   34   44   33   43   42   45   36   40  131  141  130  130  126  132  131  
 19   17    9   13    2    1    0   16  111  116  112  118  125  111  127  126  123  129   44   50   49   41   32   43   39   38   34   49   54   38   34   47   34   45   39   35   44   33   44   42   46   36   41  132  142  132  132  127  134  133  
  5    2    9    4   18   15   16    0  127  131  127  133  141  127  143  142  139  145   46   49   45   39   33   41   39   36   37   49   56   42   34   47   35   42   38   37   46   32   46   45   48   38   40  118  128  117  117  112  120  119  
129  128  119  124  110  112  111  127    0    8   11   11   14    1   18   15   12   18  117  127  132  126  117  126  122  125  114  121  119  112  121  123  117  131  125  117  118  124  115  115  117  116  123  236  246  235  237  233  235  234  
133  132  122  128  114  117  116  131    8    0    5    3   10    7   12   11    9   14  118  128  134  128  120  128  123  127  116  123  120  114  123  125  120  132  126  119  119  126  116  117  118  118  125  239  248  237  239  235  237  235  
129  129  119  125  110  113  112  127   11    5    0    6   15   10   15   16   14   19  113  123  129  123  115  123  119  123  112  118  115  109  119  120  115  128  122  114  114  122  112  112  113  113  121  234  244  233  235  231  232  231  
135  134  124  130  116  119  118  133   11    3    6    0   10   10   10   11    9   14  119  129  135  129  121  129  125  128  117  123  120  115  124  126  121  133  128  120  120  128  117  118  119  119  126  240  249  238  240  236  238  236  
143  142  132  138  123  126  125  141   14   10   15   10    0   14    6    1    2    4  128  138  144  138  130  138  134  137  126  133  130  124  133  135  130  143  137  129  129  136  126  127  128  128  135  249  258  247  249  245  247  245  
129  128  118  124  110  112  111  127    1    7   10   10   14    0   17   15   12   18  116  126  132  126  117  126  121  125  114  121  119  112  121  123  117  130  124  116  117  124  115  115  116  115  123  236  246  235  237  233  234  233  
145  144  134  140  125  128  127  143   18   12   15   10    6   17    0    5    8    7  128  138  144  139  130  138  134  138  127  133  130  124  134  135  130  143  137  129  129  137  127  127  128  128  136  249  259  248  250  246  247  246  
144  143  133  139  125  127  126  142   15   11   16   11    1   15    5    0    4    3  129  139  145  139  131  139  135  139  128  134  131  125  134  136  131  144  138  130  130  138  128  128  129  129  137  250  260  249  250  246  248  247  
141  140  130  136  121  124  123  139   12    9   14    9    2   12    8    4    0    6  127  137  143  137  128  137  132  136  125  131  129  122  132  134  128  141  135  127  128  135  125  126  127  126  134  247  257  246  248  244  245  244  
147  146  136  142  127  130  129  145   18   14   19   14    4   18    7    3    6    0  132  142  148  142  134  142  138  141  130  137  134  128  137  139  134  147  141  133  133  140  131  131  132  132  140  253  262  252  253  249  251  250  
 43   48   40   48   45   43   44   46  117  118  113  119  128  116  128  129  127  132    0   10   16   12   13   11    9   13   10    6   10    7   13    7   11   15   12    9    1   16    2    2    2    8    9  121  131  120  122  119  119  117  
 45   51   44   52   51   49   50   49  127  128  123  129  138  126  138  139  137  142   10    0    7   10   18    8   11   13   17    6   11   17   16    4   16    9   11   16   10   18   12   12   10   15    9  112  121  110  113  110  109  108  
 41   47   42   49   50   48   49   45  132  134  129  135  144  132  144  145  143  148   16    7    0    8   18    7   12   11   20   13   19   21   15    9   17    3   10   17   15   15   18   17   16   17   10  106  115  104  107  103  103  102  
 35   40   35   42   42   40   41   39  126  128  123  129  138  126  139  139  137  142   12   10    8    0   10    2    5    3   12   12   19   14    7    9    9    5    2   10   12    7   14   13   13   10    3  111  120  109  111  108  109  107  
 31   35   27   35   33   31   32   33  117  120  115  121  130  117  130  131  128  134   13   18   18   10    0   12    7    8    5   16   23    9    4   15    2   15    8    3   13    7   13   12   14    5    9  119  129  118  119  115  117  116  
 37   43   37   44   44   42   43   41  126  128  123  129  138  126  138  139  137  142   11    8    7    2   12    0    5    5   13   10   17   14    9    7   10    4    4   10   10   10   13   12   12   11    3  111  120  109  112  108  109  107  
 36   40   34   41   40   38   39   39  122  123  119  125  134  121  134  135  132  138    9   11   12    5    7    5    0    5    8   11   17   10    5    8    6    9    3    5    8    8   10    9   10    6    2  115  125  114  116  112  113  112  
 33   38   32   39   39   37   38   36  125  127  123  128  137  125  138  139  136  141   13   13   11    3    8    5    5    0   11   14   21   14    5   11    8    7    2    8   13    5   14   13   15   10    4  111  121  110  112  108  110  108  
 35   39   30   39   35   34   34   37  114  116  112  117  126  114  127  128  125  130   10   17   20   12    5   13    8   11    0   15   20    5    7   14    4   17   10    3   10   11    9    8   11    2   10  122  132  121  123  119  121  119  
 46   51   44   52   50   48   49   49  121  123  118  123  133  121  133  134  131  137    6    6   13   12   16   10   11   14   15    0    7   13   15    3   15   13   12   13    5   18    7    7    5   12   10  118  127  116  119  115  115  113  
 53   58   50   58   55   53   54   56  119  120  115  120  130  119  130  131  129  134   10   11   19   19   23   17   17   21   20    7    0   16   22   10   21   20   19   19   10   25   10   11    8   18   17  122  131  120  124  120  118  117  
 39   43   35   43   39   37   38   42  112  114  109  115  124  112  124  125  122  128    7   17   21   14    9   14   10   14    5   13   16    0   11   13    8   19   13    6    8   15    6    5    8    5   12  125  135  124  126  122  123  122  
 31   36   29   36   35   33   34   34  121  123  119  124  133  121  134  134  132  137   13   16   15    7    4    9    5    5    7   15   22   11    0   13    4   12    5    5   12    4   13   12   14    7    7  115  125  114  116  112  114  113  
 44   49   42   50   48   46   47   47  123  125  120  126  135  123  135  136  134  139    7    4    9    9   15    7    8   11   14    3   10   13   13    0   13   10   10   12    6   16    9    8    7   12    7  115  124  113  116  112  112  111  
 33   37   29   37   35   33   34   35  117  120  115  121  130  117  130  131  128  134   11   16   17    9    2   10    6    8    4   15   21    8    4   13    0   14    8    2   11    7   11   10   12    3    8  119  129  118  120  116  117  116  
 38   44   39   45   47   44   45   42  131  132  128  133  143  130  143  144  141  147   15    9    3    5   15    4    9    7   17   13   20   19   12   10   14    0    7   15   14   12   17   16   16   15    7  106  116  105  107  104  104  103  
 34   39   33   40   40   38   39   38  125  126  122  128  137  124  137  138  135  141   12   11   10    2    8    4    3    2   10   12   19   13    5   10    8    7    0    8   11    6   13   12   13    9    3  112  122  111  113  109  110  109  
 34   38   31   39   36   34   35   37  117  119  114  120  129  116  129  130  127  133    9   16   17   10    3   10    5    8    3   13   19    6    5   12    2   15    8    0    9    9   10    8   11    2    8  120  129  119  121  117  118  117  
 43   48   40   48   45   44   44   46  118  119  114  120  129  117  129  130  128  133    1   10   15   12   13   10    8   13   10    5   10    8   12    6   11   14   11    9    0   16    3    2    2    8    9  121  130  119  122  118  118  117  
 28   33   27   34   35   33   33   32  124  126  122  128  136  124  137  138  135  140   16   18   15    7    7   10    8    5   11   18   25   15    4   16    7   12    6    9   16    0   17   16   18   10    9  112  122  111  113  109  111  110  
 44   48   40   48   44   43   44   46  115  116  112  117  126  115  127  128  125  131    2   12   18   14   13   13   10   14    9    7   10    6   13    9   11   17   13   10    3   17    0    1    2    8   11  123  132  122  124  120  120  119  
 42   47   39   47   43   42   42   45  115  117  112  118  127  115  127  128  126  131    2   12   17   13   12   12    9   13    8    7   11    5   12    8   10   16   12    8    2   16    1    0    3    7    9  122  132  121  123  120  120  119  
 45   49   42   50   46   45   46   48  117  118  113  119  128  116  128  129  127  132    2   10   16   13   14   12   10   15   11    5    8    8   14    7   12   16   13   11    2   18    2    3    0   10   10  122  131  120  123  119  119  118  
 36   40   32   40   37   36   36   38  116  118  113  119  128  115  128  129  126  132    8   15   17   10    5   11    6   10    2   12   18    5    7   12    3   15    9    2    8   10    8    7   10    0    8  121  131  120  122  118  119  118  
 37   42   35   43   42   40   41   40  123  125  121  126  135  123  136  137  134  140    9    9   10    3    9    3    2    4   10   10   17   12    7    7    8    7    3    8    9    9   11    9   10    8    0  113  123  112  114  111  111  110  
113  117  123  122  134  131  132  118  236  239  234  240  249  236  249  250  247  253  121  112  106  111  119  111  115  111  122  118  122  125  115  115  119  106  112  120  121  112  123  122  122  121  113    0   10    4    4    7   13   13  
124  127  133  132  144  141  142  128  246  248  244  249  258  246  259  260  257  262  131  121  115  120  129  120  125  121  132  127  131  135  125  124  129  116  122  129  130  122  132  132  131  131  123   10    0   11   12   16   15   16  
113  117  123  122  134  130  132  117  235  237  233  238  247  235  248  249  246  252  120  110  104  109  118  109  114  110  121  116  120  124  114  113  118  105  111  119  119  111  122  121  120  120  112    4   11    0    8   10    9   10  
113  117  123  121  134  130  132  117  237  239  235  240  249  237  250  250  248  253  122  113  107  111  119  112  116  112  123  119  124  126  116  116  120  107  113  121  122  113  124  123  123  122  114    4   12    8    0    5   17   17  
108  112  119  116  129  126  127  112  233  235  231  236  245  233  246  246  244  249  119  110  103  108  115  108  112  108  119  115  120  122  112  112  116  104  109  117  118  109  120  120  119  118  111    7   16   10    5    0   19   19  
115  120  125  124  136  132  134  120  235  237  232  238  247  234  247  248  245  251  119  109  103  109  117  109  113  110  121  115  118  123  114  112  117  104  110  118  118  111  120  120  119  119  111   13   15    9   17   19    0    1  
114  119  124  123  135  131  133  119  234  235  231  236  245  233  246  247  244  250  117  108  102  107  116  107  112  108  119  113  117  122  113  111  116  103  109  117  117  110  119  119  118  118  110   13   16   10   17   19    1    0  

  0    0    0    0    0    0    0    0   40   96   61    0    0    0    0    0   35    0    0    0    0    0    0    0    0    0    0   20    7    0    0    0    0    0   58    0    0    0    0    0    0    0    0    0    0    0    0    0    0    0  
  0    0    0    0    0    0    0    0    0    0    0    0    0    0    0   26   58    0    0    0    0    0    3    0    0    0    0    0    0    0    0    0    0    0    0    0    0    0    0    0    0    0    0    0    0    0    0   89    0    0  
  0    0    0    0    0    0    0    0    0    0    0    0    0    0    0    0    0    0    0    0    0    0    0    0    0    0    0    0   17    0    0    0    0    0    0    0    0    0   72    0   11    0    0    0   47    0    0    0    0    0  
  0    0    0    0    0    0    0    0    0    0    0    0    0    0    0    0    0    0    0    0    0    0    0    0    0    0   74    0    0    0    0    0    0    0    0    0    0    0    0    0    0   53    0    0    0   63    0    0    0    0  
  0    0    0    0    0    0    0   95    0    0    0    0    0    0    0    0    0    0    0   24    0    0    0    0    0    0    0    0    0    0    0    0   62    0    0    0    0    0    0    0    0    0    0   74    0    0   85    0   67    0  
  0    0    0    0    0    0   96    0    0    0    0    1    0    7    0    0    0    0    0    0    0    0    0    0    0    0    0    0    0    0    0   56    0    0    0   33   60    0    0   12    0    0    0    0    0    0    0    0    0    0  
  0    0    0    0    0   58    0    0    0    0    0   86    0   13    0    0    0    0    0    0   36    0    0    0    8    0    0    0    0   18    0   61    0    0    0   92   73    0    0    1    0    0   45    0    0    0    0    0    0   55  
  0    0    0    0   36    0    0    0    0    0    2    0    0    0    0    0    0    0    0   67    0    0    0    0    0    0    0    0    0    0    0    0    0    0    0    0    0    0    0    0    0    0    0   67    0    0    0    0   37    0  
 43    0    0    0    0    0    0    0    0   53    5    0    0    0    0    0   23    0    0    0    0   42    0    0    0    0    0   14    0    0    0    0    0    0   98    0    0    0    0    0    0    0    0    0    0    0    0    0    0    0  
 84    0    0    0    0    0    0    0   92    0   87    0    0    0    0   39   37    0    0    0    0    2   77    0    0    0    0   35    0    0    0    0    0    0   19    0    0    0    0    0    0    0    0    0    0    0    0    0    0    0  
 68    0    0    0    0    0    0   21   11   94    0    0    0    0    0    0    0    0    0    0    0   85    0    0    0    0    0    0    0    0    0    0    0    0    0    0    0    0    0    0    0    0    0   86    0    0    0    0    0    0  
  0    0    0    0    0   12   22    0    0    0    0    0    0   84    0    0    0    0    0    0    0    0    0    0    0    0    0    0    0   80    0   27    0    0    0   31   38    0    0   41    0    0    0    0    0    0    0    0    0    6  
  0    0    0    0    0    0    0    0    0    0    0    0    0    0   94    0    0    0    0    0    0    0    0    0    0   79    0    0    0    0    0    0    0    0    0    0    0   65    0    0    0    0    0    0    0    0    0    0    0    0  
  0    0    0    0    0   97   13    0    0    0    0   51    0    0    0    0    0    0    0    0    0    0    0    0    0    0    0    0    0   53    0   13    0    0    0   64   40    0    0   69    0    0    0    0    0    0    0    0    0   69  
  0    0    0    0    0    0    0    0    0    0    0    0   30    0    0    0    0    0    0    0    0    0    0    0    0   83    0    0    0    0    0    0    0    0    0    0    0   77    0    0    0    0    0    0    0    0    0    0    0    0  
  0   98    0    0    0    0    0    0    0   61    0    0    0    0    0    0   36    0    0    0    0    0   15    0    0    0    0   97    0    0    0    0    0    0   70    0    0    0    0    0    0    0    0    0    0    0    0   76    0    0  
 17   24    0    0    0    0    0    0   90   73    0    0    0    0    0   87    0    0    0    0    0    0   26    0    0    0    0   85    0    0    0    0    0    0   82    0    0    0    0    0    0    0    0    0    0    0    0    0    0    0  
  0    0    0    0    0    0    0    0    0    0    0    0    0    0    0    0    0    0    0    0   87    0    0    0    0    0    0    0    0    0    0    0    0    0    0    0    0    0    0    0    0    0    5    0    0    0    0    0    0   25  
  0    0    0    0    0    0    0    0    0    0    0    0    0    0    0    0    0    0    0    0    0    0    0    0    0    0    0    0    0    0   85    0   95   13    0    0    0    0   30    0    5   54    0    0   43    0    0    0    0    0  
  0    0    0    0   19    0    0   20    0    0    0    0    0    0    0    0    0    0    0    0    0    0    0    0    0    0    0    0    0    0    0    0    9    0    0    0    0    0    0    0    0    0    0    1    0    0   18    0   65    0  
  0    0    0    0    0    0   59    0    0    0    0    0    0    0    0    0    0   94    0    0    0    0    0    0   64    0    0    0    0   44    0    0    0    0    0   37    1    0    0   21    0    0   44    0    0    0    0    0    0   33  
  0    0    0    0    0    0    0    0   14    8    1    0    0    0    0    0    0    0    0    0    0    0    0    0    0    0    0    0    0    0    0    0    0    0    0    0    0    0    0    0    0    0    0    0    0    0    0    0    0    0  
  0   79    0    0    0    0    0    0    0   29    0    0    0    0    0   71   44    0    0    0    0    0    0    0    0    0    0    0    0    0    0    0    0    0   29    0    0    0    0    0    0    0    0    0    0    0    0   26    0    0  
  0    0    0    0    0    0    0    0    0    0    0    0    0    0    0    0    0    0    0    0    0    0    0    0    0    0   27    0    0    0    0    0    0    0    0    0    0    0    0    0    0    0    0    0    0    0    0    0    0    0  
  0    0    0    0    0    0    7    0    0    0    0    0    0    0    0    0    0    0    0    0   79    0    0    0    0    0    0    0    0   30    0    5    0    0    0   33   86    0    0   15    0    0   30    0    0    0    0    0    0   53  
  0    0    0    0    0    0    0    0    0    0    0    0   53    0   79    0    0    0    0    0    0    0    0    0    0    0    0    0    0    0    0    0    0    0    0    0    0    6    0    0    0    0    0    0    0    0    0    0    0    0  
  0    0    0   84    0    0    0    0    0    0    0    0    0    0    0    0    0    0    0    0    0    0    0   93    0    0    0    0    0    0    0    0    0    0    0    0    0    0    0    0    0    0    0    0    0   75    0    0    0    0  
 11    0    0    0    0    0    0    0   12   30    0    0    0    0    0   37   65    0    0    0    0    0    0    0    0    0    0    0   84    0    0    0    0    0   77    0    0    0    0    0   69    0    0    0    0    0    0    0    0    0  
 47    0   39    0    0    0    0    0    0    0    0    0    0    0    0    0    0    0    0    0    0    0    0    0    0    0    0   54    0    0    0    0    0    0   59    0    0    0    5    0   91    0    0    0   48    0    0    0    0    0  
  0    0    0    0    0    0    7    0    0    0    0   34    0   54    0    0    0    0    0    0   60    0    0    0   77    0    0    0    0    0    0    0    0    0    0    0   66    0    0   65    0    0   57    0    0    0    0    0    0   28  
  0    0    0    0    0    0    0    0    0    0    0    0    0    0    0    0    0    0   77    0    0    0    0    0    0    0    0    0    0    0    0    0   52   47    0    0    0    0   12    0   84   15    0    0   76    0    4    0    0    0  
  0    0    0    0    0   76   35    0    0    0    0   45    0    4    0    0    0    0    0    0    0    0    0    0   29    0    0    0    0    0    0    0    0    0    0   74   92    0    0   75    0    0    0    0    0    0    0    0    0   14  
  0    0    0    0   34    0    0    0    0    0    0    0    0    0    0    0    0    0   89   14    0    0    0    0    0    0    0    0    0    0   85    0    0   47    0    0    0    0   92    0   54   52    0    0   84    0   17    0    0    0  
  0    0    0    0    0    0    0    0    0    0    0    0    0    0    0    0    0    0   27    0    0    0    0    0    0    0    0    0    0    0   15    0   78    0    0    0    0    0   61    0   63   73    0    0   11    0    0    0    0    0  
 97    0    0    0    0    0    0    0   12   90    0    0    0    0    0    7   87    0    0    0    0    0   60    0    0    0    0   84   71    0    0    0    0    0    0    0    0    0    0    0    0    0    0    0    0    0    0    0    0    0  
  0    0    0    0    0   95   19    0    0    0    0    7    0    8    0    0    0    0    0    0   96    0    0    0   96    0    0    0    0    0    0   93    0    0    0    0   68    0    0   13    0    0    0    0    0    0    0    0    0   64  
  0    0    0    0    0   40   70    0    0    0    0   22    0   99    0    0    0    0    0    0   10    0    0    0   81    0    0    0    0   68    0   39    0    0    0   89    0    0    0   38    0    0   44    0    0    0    0    0    0   87  
  0    0    0    0    0    0    0    0    0    0    0    0   88    0   20    0    0    0    0    0    0    0    0    0    0   79    0    0    0    0    0    0    0    0    0    0    0    0    0    0    0    0    0    0    0    0    0    0    0    0  
  0    0   69    0    0    0    0    0    0    0    0    0    0    0    0    0    0    0   62    0    0    0    0    0    0    0    0    0   40    0   14    0    4   24    0    0    0    0    0    0   17   26    0    0   95    0    0    0    0    0  
  0    0    0    0    0   60   60    0    0    0    0   25    0   78    0    0    0    0    0    0    1    0    0    0   12    0    0    0    0   64    0   90    0    0    0   38   76    0    0    0    0    0   88    0    0    0    0    0    0    7  
  0    0   35    0    0    0    0    0    0    0    0    0    0    0    0    0    0    0   96    0    0    0    0    0    0    0    0   56   84    0   85    0   72   94    0    0    0    0   69    0    0    0    0    0    6    0    0    0    0    0  
  0    0    0   29    0    0    0    0    0    0    0    0    0    0    0    0    0    0   19    0    0    0    0    0    0    0    0    0    0    0   15    0   29   25    0    0    0    0   21    0    0    0    0    0   52   32    0    0    0    0  
  0    0    0    0    0    0   28    0    0    0    0    0    0    0    0    0    0    7    0    0   88    0    0    0   13    0    0    0    0   66    0    0    0    0    0    0    1    0    0   89    0    0    0    0    0    0    0    0    0   49  
  0    0    0    0   93    0    0    1    0    0   69    0    0    0    0    0    0    0    0   77    0    0    0    0    0    0    0    0    0    0    0    0    0    0    0    0    0    0    0    0    0    0    0    0    0    0   65    0   55    0  
  0    0   51    0    0    0    0    0    0    0    0    0    0    0    0    0    0    0   40    0    0    0    0    0    0    0    0    0   54    0   27    0   15   88    0    0    0    0   18    0   43   36    0    0    0    0    0    0    0    0  
  0    0    0   88    0    0    0    0    0    0    0    0    0    0    0    0    0    0    0    0    0    0    0    0    0    0   80    0    0    0    0    0    0    0    0    0    0    0    0    0    0    1    0    0    0    0    0    0    0    0  
  0    0    0    0   58    0    0    0    0    0    0    0    0    0    0    0    0    0    0   40    0    0    0    0    0    0    0    0    0    0    3    0   43    0    0    0    0    0    0    0    0    0    0   41    0    0    0    0   88    0  
  0   22    0    0    0    0    0    0    0    0    0    0    0    0    0   97    0    0    0    0    0    0   50    0    0    0    0    0    0    0    0    0    0    0    0    0    0    0    0    0    0    0    0    0    0    0    0    0    0    0  
  0    0    0    0   82    0    0   20    0    0    0    0    0    0    0    0    0    0    0   19    0    0    0    0    0    0    0    0    0    0    0    0    0    0    0    0    0    0    0    0    0    0    0   88    0    0   73    0    0    0  
  0    0    0    0    0    0   75    0    0    0    0   40    0   72    0    0    0   41    0    0   98    0    0    0   53    0    0    0    0   42    0    7    0    0    0   84   65    0    0   36    0    0   69    0    0    0    0    0    0    0  
